c random clauses
p cnf 13 16
-13 -12 -9 -6 -2 1 3 11 0
-13 -11 -10 -6 2 5 7 9 0
-13 -11 -5 -3 -2 4 7 10 0
-13 -11 -1 4 7 8 9 12 0
-13 -8 1 3 4 5 7 9 0
-12 -10 -8 -4 -1 3 6 13 0
-12 -6 -5 -4 -2 -1 11 13 0
-11 -9 -8 -6 -5 -4 3 10 0
-11 -9 -3 5 7 8 10 12 0
-11 -9 -1 2 5 6 12 13 0
-11 -8 -5 1 3 7 12 13 0
-10 -3 -1 4 5 8 9 12 0
-9 -7 -4 1 8 10 11 12 0
-8 -6 -3 -1 5 7 12 13 0
-7 -4 -1 6 8 9 10 11 0
-4 -3 -1 2 6 7 8 12 0
